WARNING: for repeatability, setting FPU to use double precision
============================[ Problem Statistics ]=============================
|                                                                             |
|  Number of variables:        199970                                         |
|  Number of clauses:          443357                                         |
|  Parse time:                   0.14 s                                       |
|                                                                             |
============================[ Search Statistics ]==============================
| Conflicts |          ORIGINAL         |          LEARNT          | Progress |
|           |    Vars  Clauses Literals |    Limit  Clauses Lit/Cl |          |
===============================================================================
|       100 |  106920   421163   949246 |   154426      100     25 | 46.532 % |
|       250 |  106920   421163   949246 |   169869      250    146 | 46.532 % |
|       475 |  106920   421163   949246 |   186855      475    115 | 46.532 % |
|       812 |  106920   421163   949246 |   205541      812    110 | 46.532 % |
|      1318 |  106920   421163   949246 |   226095     1318    114 | 46.532 % |
|      2077 |  106920   421163   949246 |   248705     2077     99 | 46.532 % |
|      3216 |  106920   421163   949246 |   273575     3216    126 | 46.532 % |
|      4924 |  106920   421163   949246 |   300933     4924    122 | 46.532 % |
|      7486 |  106920   421163   949246 |   331026     7486    139 | 46.532 % |
|     11330 |  106920   421163   949246 |   364129    11330    129 | 46.532 % |
|     17096 |  106920   421163   949246 |   400542    17096    129 | 46.532 % |
|     25745 |  106920   421163   949246 |   440596    25745    124 | 46.532 % |
|     38719 |  106920   421163   949246 |   484656    38719    126 | 46.532 % |
|     58180 |  106920   421163   949246 |   533121    58180    119 | 46.532 % |
|     87372 |  106920   421163   949246 |   586434    87372    116 | 46.532 % |
|    131161 |  106920   421163   949246 |   645077   131161    110 | 46.532 % |
|    196845 |  106920   421163   949246 |   709585   196845    109 | 46.532 % |
|    295371 |  106920   421163   949246 |   780543   295371    111 | 46.532 % |
|    443160 |  106920   421163   949246 |   858598   443160    111 | 46.532 % |
|    664843 |  106920   421163   949246 |   944458   664843    107 | 46.532 % |
===============================================================================
restarts              : 1704
conflicts             : 798365         (614 /sec)
decisions             : 1554824        (0.00 % random) (1196 /sec)
propagations          : 3184413579     (2449471 /sec)
conflict literals     : 81300628       (50.35 % deleted)
Memory used           : 434.00 MB
CPU time              : 1300.04 s

UNSATISFIABLE
